0 99 
1 100 
2 99 
3 95 
4 95 
5 94 
6 95 
7 97 
8 98 
9 95 
10 99 
11 100 
12 101 
13 96 
14 92 
15 91 
16 90 
17 85 
18 87 
19 84 
20 85 
21 85 
22 83 
23 89 
24 87 
25 85 
26 86 
27 80 
28 77 
29 78 
30 80 
31 79 
32 80 
33 76 
34 77 
35 74 
36 78 
37 76 
38 71 
39 68 
40 70 
41 66 
42 66 
43 66 
44 67 
45 65 
46 63 
47 63 
48 64 
49 61 
50 55 
51 50 
52 48 
53 48 
54 50 
55 47 
56 47 
57 41 
58 42 
59 47 
60 41 
61 38 
62 38 
63 34 
64 34 
65 35 
66 33 
67 32 
68 34 
69 32 
70 28 
71 29 
72 29 
73 27 
74 27 
75 28 
76 25 
77 27 
78 23 
79 19 
80 17 
81 18 
82 19 
83 19 
84 18 
85 15 
86 14 
87 14 
88 12 
89 10 
90 9 
91 7 
92 7 
93 6 
94 4 
95 5 
96 5 
97 5 
98 3 
99 2 
100 2 
101 2 
102 0 
103 0 

